86, 334
250, 28
349, 93
543, 77
472, 58
287, 36
251, 22
331, 34
416, 9
199, 13
202, 0
542, 55
142, 68
346, 64
74, 34
93, 89
207, 51
281, 72
65, 82
68, 66
292, 29
488, 12
244, 11
76, 40
301, 63
548, 99
484, 20
503, 88
424, 65
527, 85
267, 35
272, 50
319, 45
279, 13
68, 16
104, 85
161, 85
333, 84
197, 23
458, 6
255, 6
385, 13
307, 57
188, 90
389, 74
171, 57
367, 2
339, 17
510, 4
364, 72
197, 99
233, 6
136, 95
338, 54
354, 35
423, 36
513, 86
365, 26
356, 88
353, 15
467, 96
316, 58
525, 33
68, 32
514, 41
128, 74
383, 47
129, 29
304, 63
448, 40
73, 4
154, 77
486, 30
68, 26
263, 59
141, 61
115, 6
188, 71
321, 54
72, 79
266, 26
95, 17
119, 100
168, 31
526, 37
511, 99
186, 87